(declare-fun a_ack!97 () (_ BitVec 32))
(declare-fun b_ack!94 () (_ BitVec 32))
(declare-fun c_ack!95 () (_ BitVec 64))
(declare-fun d_ack!96 () (_ BitVec 64))
(assert (not (bvslt a_ack!97 #x00000001)))
(assert (not (bvslt (bvadd #xffffffff a_ack!97) b_ack!94)))
(assert (not (fp.leq ((_ to_fp 11 53) c_ack!95) ((_ to_fp 11 53) #x0000000000000000))))
(assert (not (fp.lt ((_ to_fp 11 53) d_ack!96) ((_ to_fp 11 53) #x0000000000000000))))

(check-sat)
(exit)
